NAME          
ROWS
 N  OBJ
 L  c1
 L  c2
 L  c3
 L  c4
 L  c5
COLUMNS
    MARKER    'MARKER'                 'INTORG'
    x[1]      c1        217
    x[1]      c2        874
    x[1]      c3        571
    x[1]      c4        377
    x[1]      c5        533
    x[1]      OBJ       -984
    x[2]      c1        148
    x[2]      c2        878
    x[2]      c3        347
    x[2]      c4        467
    x[2]      c5        467
    x[2]      OBJ       -411
    x[3]      c1        414
    x[3]      c2        769
    x[3]      c3        784
    x[3]      c4        950
    x[3]      c5        431
    x[3]      OBJ       -179
    x[4]      c1        234
    x[4]      c2        760
    x[4]      c3        893
    x[4]      c4        192
    x[4]      c5        964
    x[4]      OBJ       -420
    x[5]      c1        322
    x[5]      c2        43
    x[5]      c3        257
    x[5]      c4        391
    x[5]      c5        957
    x[5]      OBJ       -443
    x[6]      c1        58
    x[6]      c2        776
    x[6]      c3        137
    x[6]      c4        858
    x[6]      c5        11
    x[6]      OBJ       -110
    x[7]      c1        587
    x[7]      c2        677
    x[7]      c3        641
    x[7]      c4        185
    x[7]      c5        740
    x[7]      OBJ       -581
    x[8]      c1        360
    x[8]      c2        475
    x[8]      c3        80
    x[8]      c4        752
    x[8]      c5        859
    x[8]      OBJ       -228
    x[9]      c1        464
    x[9]      c2        144
    x[9]      c3        432
    x[9]      c4        573
    x[9]      c5        494
    x[9]      OBJ       -758
    x[10]     c1        131
    x[10]     c2        273
    x[10]     c3        674
    x[10]     c4        691
    x[10]     c5        393
    x[10]     OBJ       -586
    x[11]     c1        666
    x[11]     c2        930
    x[11]     c3        836
    x[11]     c4        51
    x[11]     c5        602
    x[11]     OBJ       -248
    x[12]     c1        324
    x[12]     c2        261
    x[12]     c3        410
    x[12]     c4        612
    x[12]     c5        238
    x[12]     OBJ       -365
    x[13]     c1        643
    x[13]     c2        398
    x[13]     c3        355
    x[13]     c4        47
    x[13]     c5        846
    x[13]     OBJ       -725
    x[14]     c1        667
    x[14]     c2        656
    x[14]     c3        850
    x[14]     c4        246
    x[14]     c5        374
    x[14]     OBJ       -851
    x[15]     c1        70
    x[15]     c2        565
    x[15]     c3        423
    x[15]     c4        436
    x[15]     c5        601
    x[15]     OBJ       -971
    x[16]     c1        614
    x[16]     c2        379
    x[16]     c3        42
    x[16]     c4        262
    x[16]     c5        352
    x[16]     OBJ       -481
    x[17]     c1        285
    x[17]     c2        540
    x[17]     c3        709
    x[17]     c4        351
    x[17]     c5        19
    x[17]     OBJ       -666
    x[18]     c1        229
    x[18]     c2        65
    x[18]     c3        703
    x[18]     c4        553
    x[18]     c5        444
    x[18]     OBJ       -526
    x[19]     c1        117
    x[19]     c2        570
    x[19]     c3        808
    x[19]     c4        837
    x[19]     c5        703
    x[19]     OBJ       -122
    x[20]     c1        460
    x[20]     c2        614
    x[20]     c3        194
    x[20]     c4        921
    x[20]     c5        93
    x[20]     OBJ       -336
    x[21]     c1        959
    x[21]     c2        8
    x[21]     c3        708
    x[21]     c4        650
    x[21]     c5        192
    x[21]     OBJ       -61
    x[22]     c1        13
    x[22]     c2        732
    x[22]     c3        640
    x[22]     c4        920
    x[22]     c5        603
    x[22]     OBJ       -718
    x[23]     c1        136
    x[23]     c2        554
    x[23]     c3        13
    x[23]     c4        273
    x[23]     c5        481
    x[23]     OBJ       -243
    x[24]     c1        988
    x[24]     c2        565
    x[24]     c3        502
    x[24]     c4        731
    x[24]     c5        516
    x[24]     OBJ       -160
    x[25]     c1        788
    x[25]     c2        140
    x[25]     c3        676
    x[25]     c4        606
    x[25]     c5        344
    x[25]     OBJ       -405
    x[26]     c1        645
    x[26]     c2        415
    x[26]     c3        654
    x[26]     c4        526
    x[26]     c5        117
    x[26]     OBJ       -992
    x[27]     c1        218
    x[27]     c2        453
    x[27]     c3        594
    x[27]     c4        471
    x[27]     c5        535
    x[27]     OBJ       -810
    x[28]     c1        915
    x[28]     c2        359
    x[28]     c3        31
    x[28]     c4        892
    x[28]     c5        133
    x[28]     OBJ       -96
    x[29]     c1        16
    x[29]     c2        175
    x[29]     c3        87
    x[29]     c4        635
    x[29]     c5        592
    x[29]     OBJ       -746
    x[30]     c1        912
    x[30]     c2        644
    x[30]     c3        985
    x[30]     c4        35
    x[30]     c5        106
    x[30]     OBJ       -364
    x[31]     c1        801
    x[31]     c2        613
    x[31]     c3        403
    x[31]     c4        889
    x[31]     c5        157
    x[31]     OBJ       -100
    x[32]     c1        506
    x[32]     c2        300
    x[32]     c3        817
    x[32]     c4        724
    x[32]     c5        657
    x[32]     OBJ       -318
    x[33]     c1        123
    x[33]     c2        788
    x[33]     c3        697
    x[33]     c4        555
    x[33]     c5        51
    x[33]     OBJ       -609
    x[34]     c1        641
    x[34]     c2        246
    x[34]     c3        537
    x[34]     c4        611
    x[34]     c5        901
    x[34]     OBJ       -592
    x[35]     c1        922
    x[35]     c2        251
    x[35]     c3        950
    x[35]     c4        415
    x[35]     c5        564
    x[35]     OBJ       -223
    x[36]     c1        895
    x[36]     c2        947
    x[36]     c3        775
    x[36]     c4        3
    x[36]     c5        927
    x[36]     OBJ       -633
    x[37]     c1        661
    x[37]     c2        745
    x[37]     c3        293
    x[37]     c4        813
    x[37]     c5        753
    x[37]     OBJ       -538
    x[38]     c1        84
    x[38]     c2        918
    x[38]     c3        657
    x[38]     c4        814
    x[38]     c5        848
    x[38]     OBJ       -445
    x[39]     c1        665
    x[39]     c2        970
    x[39]     c3        340
    x[39]     c4        733
    x[39]     c5        301
    x[39]     OBJ       -978
    x[40]     c1        535
    x[40]     c2        433
    x[40]     c3        954
    x[40]     c4        266
    x[40]     c5        572
    x[40]     OBJ       -393
    x[41]     c1        742
    x[41]     c2        492
    x[41]     c3        597
    x[41]     c4        875
    x[41]     c5        352
    x[41]     OBJ       -664
    x[42]     c1        657
    x[42]     c2        601
    x[42]     c3        255
    x[42]     c4        738
    x[42]     c5        824
    x[42]     OBJ       -458
    x[43]     c1        386
    x[43]     c2        310
    x[43]     c3        889
    x[43]     c4        343
    x[43]     c5        762
    x[43]     OBJ       -240
    x[44]     c1        697
    x[44]     c2        534
    x[44]     c3        463
    x[44]     c4        287
    x[44]     c5        239
    x[44]     OBJ       -947
    x[45]     c1        11
    x[45]     c2        777
    x[45]     c3        618
    x[45]     c4        826
    x[45]     c5        317
    x[45]     OBJ       -610
RHS
    rhs       c1        10463
    rhs       c2        11808
    rhs       c3        12140
    rhs       c4        12192
    rhs       c5        10982
RANGES
BOUNDS
 BV bounds    x[1]
 BV bounds    x[2]
 BV bounds    x[3]
 BV bounds    x[4]
 BV bounds    x[5]
 BV bounds    x[6]
 BV bounds    x[7]
 BV bounds    x[8]
 BV bounds    x[9]
 BV bounds    x[10]
 BV bounds    x[11]
 BV bounds    x[12]
 BV bounds    x[13]
 BV bounds    x[14]
 BV bounds    x[15]
 BV bounds    x[16]
 BV bounds    x[17]
 BV bounds    x[18]
 BV bounds    x[19]
 BV bounds    x[20]
 BV bounds    x[21]
 BV bounds    x[22]
 BV bounds    x[23]
 BV bounds    x[24]
 BV bounds    x[25]
 BV bounds    x[26]
 BV bounds    x[27]
 BV bounds    x[28]
 BV bounds    x[29]
 BV bounds    x[30]
 BV bounds    x[31]
 BV bounds    x[32]
 BV bounds    x[33]
 BV bounds    x[34]
 BV bounds    x[35]
 BV bounds    x[36]
 BV bounds    x[37]
 BV bounds    x[38]
 BV bounds    x[39]
 BV bounds    x[40]
 BV bounds    x[41]
 BV bounds    x[42]
 BV bounds    x[43]
 BV bounds    x[44]
 BV bounds    x[45]
ENDATA
